NAME : moje8_m2
COMMENT : 6-city problem (Patryk)
TYPE : TSP
DIMENSION : 7
EDGE_WEIGHT_TYPE : EUC_2D
NODE_COORD_SECTION
1 10 60
2 20 70
3 30 80
4 40 90
5 50 95
6 60 90 
7 70 80
8 80 70 
9 90 60 
10 90 50 
11 90 40
12 80 30
13 70 20
14 60 10
15 50 10 
16 40 10
17 30 20
18 20 30
19 10 40
20 10 50
EOF
